NAME: rd100
DIMENSION: 18
EDGE_WEIGHT_TYPE: EUC_2D
NODE_COORD_SECTION
1 144 863
2 882 1
3 545 735
4 503 876
5 205 345
6 702 577
7 147 164
8 135 808
9 629 977
10 675 731
11 314 299
12 446 982
13 355 765
14 398 976
15 273 854
16 666 312
17 877 925
18 134 950
ACCEPTED_PROBABILITIES
0.0
0.45
0.21
0.64
0.31
1.0
0.96
0.55
0.52
0.43
0.68
0.54
0.9
0.01
0.49
0.52
0.18
1.0
OUTSOURCING_COSTS
0.0
5.64
61.03
2.95
12.08
14.0
57.16
36.1
17.97
19.83
60.91
16.17
3.98
49.47
37.53
26.54
0.53
32.64
